************************************************************************
* file: instancias_geradas/folfiri_5_pacientes.sm
* - Instance: FOLFIRI protocol for 5 patients
* - nr. of activities:   42 (incl. source/sink)
* - nr. of renewable resources: 4
************************************************************************
jobs (incl. supersource/sink ): 42
horizon:                         1000 
renewable resources:             4

PRECEDENCE RELATIONS:
- jobnr. mode successors...
  1   1   16   1 2 3 4 9 10 11 17 18 19 25 26 27 33 34 35
  2   1   1    4
  3   1   1    5
  4   1   1    5
  5   1   1    6
  6   1   1    7
  7   1   1    8
  8   1   1    42
  9   1   1    12
  10  1   1    12
  11  1   1    13
  12  1   1    13
  13  1   1    14
  14  1   1    15
  15  1   1    16
  16  1   1    42
  17  1   1    20
  18  1   1    20
  19  1   1    21
  20  1   1    21
  21  1   1    22
  22  1   1    23
  23  1   1    24
  24  1   1    42
  25  1   1    28
  26  1   1    28
  27  1   1    29
  28  1   1    29
  29  1   1    30
  30  1   1    31
  31  1   1    32
  32  1   1    42
  33  1   1    36
  34  1   1    36
  35  1   1    37
  36  1   1    37
  37  1   1    38
  38  1   1    39
  39  1   1    40
  40  1   1    42
  41  1   0    
  42  1   0    

REQUESTS/DURATIONS:
- jobnr. mode duration R1 R2 R3 R4
  1   1   0    0  0  0  0 
  2   1   2    0  0  1  0 
  3   1   4    0  0  0  1 
  4   1   1    1  1  0  0 
  5   1   6    1  1  0  0 
  6   1   8    1  1  0  0 
  7   1   1    1  1  0  0 
  8   1   2    1  1  0  0 
  9   1   2    1  0  0  0 
  10  1   2    0  0  1  0 
  11  1   4    0  0  0  1 
  12  1   1    1  1  0  0 
  13  1   6    1  1  0  0 
  14  1   8    1  1  0  0 
  15  1   1    1  1  0  0 
  16  1   2    1  1  0  0 
  17  1   2    1  0  0  0 
  18  1   2    0  0  1  0 
  19  1   4    0  0  0  1 
  20  1   1    1  1  0  0 
  21  1   6    1  1  0  0 
  22  1   8    1  1  0  0 
  23  1   1    1  1  0  0 
  24  1   2    1  1  0  0 
  25  1   2    1  0  0  0 
  26  1   2    0  0  1  0 
  27  1   4    0  0  0  1 
  28  1   1    1  1  0  0 
  29  1   6    1  1  0  0 
  30  1   8    1  1  0  0 
  31  1   1    1  1  0  0 
  32  1   2    1  1  0  0 
  33  1   2    1  0  0  0 
  34  1   2    0  0  1  0 
  35  1   4    0  0  0  1 
  36  1   1    1  1  0  0 
  37  1   6    1  1  0  0 
  38  1   8    1  1  0  0 
  39  1   1    1  1  0  0 
  40  1   2    1  1  0  0 
  42  1   0    0  0  0  0 

RESOURCEAVAILABILITIES:
R1 R2 R3 R4
10 10 10 10
